p tdp 20 83
1 5
1 7
1 10
1 11
1 12
1 14
1 15
1 16
1 17
1 18
2 4
2 6
2 9
3 4
3 5
3 6
3 7
3 8
3 14
3 19
4 7
4 8
4 9
4 16
4 18
4 20
5 6
5 11
5 13
5 14
5 18
6 11
6 12
6 13
6 14
6 15
6 16
6 19
6 20
7 9
7 10
7 11
7 14
7 15
7 16
7 20
8 10
8 12
8 14
8 15
8 17
8 18
8 19
8 20
9 10
9 11
9 12
9 13
9 17
9 18
9 20
10 11
10 12
10 15
10 17
10 18
11 12
11 13
11 14
11 20
12 13
12 16
12 17
12 20
13 19
14 18
15 16
15 17
15 19
15 20
16 19
17 20
18 19
